112 300 102 134 101 128 197 106 125 177 160 167 172 158 184 122 148 168 110 109 109 198 123 105 175 145 114 111 136 135 120 155 188 123 156 189 151 152 162 142 196 121 108 133 180 159 156 194 126 166 169 102 129 159 107 103 170 121 182 105 156 101 127 109 191 149 165 141 100 126 183 196 113 158 196 159 116 151 152 108 116 188 177 145 146 185 115 182 172 197 154 195 198 181 170 155 129 134 196 196 126 145 158 140 102 153 165 185 103 117 159 186 171 136 